nK = 2617;
nT = 8;
nI = 21;
L = 35;
TT = 589;
np = 1;
nc = 3;
b = [54, 42, 39, 60, 20, 47, 54, 45, 22, 33, 31, 49, 52, 24, 68, 59, 31, 49, 45, 32, 38];
d = [145, 146, 147, 115, 85, 84, 95, 111, 81, 134, 113, 83, 108, 105, 135, 138, 122, 122, 85, 110, 90];
m = [1.5, 1.4, 2.4, 1.6, 1.1, 1.6, 2.3, 1.5, 1.9, 2.3, 2.4, 2, 2.2, 1, 2.5, 1, 2.5, 1.2, 1.9, 1.9, 1.4];
pt = [0.3, 0.31, 0.22, 0.35, 0.3, 0.3, 0.31, 0.35];
st = [15.6, 13.95, 13.2, 20.3, 15.6, 18, 17.67, 14.7];
arc = {<1, 0, 1, 1, 0, 0, 0, [1, 1, 1, 1, 1, 1, 1, 1]>, <2, 1, 2, 1, 0, 0, 0, [1, 1, 1, 1, 1, 1, 1, 1]>, <3, 2, 3, 1, 0, 0, 0, [1, 1, 1, 1, 1, 1, 1, 1]>, <4, 3, 4, 1, 0, 0, 0, [1, 1, 1, 1, 1, 1, 1, 1]>, <5, 4, 5, 1, 0, 0, 0, [1, 1, 1, 1, 1, 1, 1, 1]>, <6, 5, 6, 1, 0, 0, 0, [1, 1, 1, 1, 1, 1, 1, 1]>, <7, 6, 7, 1, 0, 0, 0, [1, 1, 1, 1, 1, 1, 1, 1]>, <8, 7, 8, 1, 0, 0, 0, [1, 1, 1, 1, 1, 1, 1, 1]>, <9, 8, 9, 1, 0, 0, 0, [1, 1, 1, 1, 1, 1, 1, 1]>, <10, 9, 10, 1, 0, 0, 0, [1, 1, 1, 1, 1, 1, 1, 1]>, <11, 10, 11, 1, 0, 0, 0, [1, 1, 1, 1, 1, 1, 1, 1]>, <12, 11, 12, 1, 0, 0, 0, [1, 1, 1, 1, 1, 1, 1, 1]>, <13, 12, 13, 1, 0, 0, 0, [1, 1, 1, 1, 1, 1, 1, 1]>, <14, 13, 14, 1, 0, 0, 0, [1, 1, 1, 1, 1, 1, 1, 1]>, <15, 14, 15, 1, 0, 0, 0, [1, 1, 1, 1, 1, 1, 1, 1]>, <16, 15, 16, 1, 0, 0, 0, [1, 1, 1, 1, 1, 1, 1, 1]>, <17, 16, 17, 1, 0, 0, 0, [1, 1, 1, 1, 1, 1, 1, 1]>, <18, 17, 18, 1, 0, 0, 0, [1, 1, 1, 1, 1, 1, 1, 1]>, <19, 18, 19, 1, 0, 0, 0, [1, 1, 1, 1, 1, 1, 1, 1]>, <20, 19, 20, 1, 0, 0, 0, [1, 1, 1, 1, 1, 1, 1, 1]>, <21, 20, 21, 1, 0, 0, 0, [1, 1, 1, 1, 1, 1, 1, 1]>, <22, 21, 22, 1, 0, 0, 0, [1, 1, 1, 1, 1, 1, 1, 1]>, <23, 22, 23, 1, 0, 0, 0, [1, 1, 1, 1, 1, 1, 1, 1]>, <24, 23, 24, 1, 0, 0, 0, [1, 1, 1, 1, 1, 1, 1, 1]>, <25, 24, 25, 1, 0, 0, 0, [1, 1, 1, 1, 1, 1, 1, 1]>, <26, 25, 26, 1, 0, 0, 0, [1, 1, 1, 1, 1, 1, 1, 1]>, <27, 26, 27, 1, 0, 0, 0, [1, 1, 1, 1, 1, 1, 1, 1]>, <28, 27, 28, 1, 0, 0, 0, [1, 1, 1, 1, 1, 1, 1, 1]>, <29, 28, 29, 1, 0, 0, 0, [1, 1, 1, 1, 1, 1, 1, 1]>, <30, 29, 30, 1, 0, 0, 0, [1, 1, 1, 1, 1, 1, 1, 1]>, <31, 30, 31, 1, 0, 0, 0, [1, 1, 1, 1, 1, 1, 1, 1]>, <32, 31, 32, 1, 0, 0, 0, [1, 1, 1, 1, 1, 1, 1, 1]>, <33, 32, 33, 1, 0, 0, 0, [1, 1, 1, 1, 1, 1, 1, 1]>, <34, 33, 34, 1, 0, 0, 0, [1, 1, 1, 1, 1, 1, 1, 1]>, <35, 34, 35, 1, 0, 0, 0, [1, 1, 1, 1, 1, 1, 1, 1]>, <36, 1, 17, 16, 1, 1, 0, [0, 0, 0, 0, 1, 1, 0, 0]>, <37, 2, 18, 16, 1, 1, 0, [0, 0, 0, 0, 1, 1, 0, 0]>, <38, 3, 19, 16, 1, 1, 0, [0, 0, 0, 0, 1, 1, 0, 0]>, <39, 4, 20, 16, 1, 1, 0, [0, 0, 0, 0, 1, 1, 0, 0]>, <40, 5, 21, 16, 1, 1, 0, [0, 0, 0, 0, 1, 1, 0, 0]>, <41, 6, 22, 16, 1, 1, 0, [0, 0, 0, 0, 1, 1, 0, 0]>, <42, 10, 26, 16, 1, 1, 0, [0, 0, 0, 0, 1, 1, 0, 0]>, <43, 11, 27, 16, 1, 1, 0, [0, 0, 0, 0, 1, 1, 0, 0]>, <44, 12, 28, 16, 1, 1, 0, [0, 0, 0, 0, 1, 1, 0, 0]>, <45, 13, 29, 16, 1, 1, 0, [0, 0, 0, 0, 1, 1, 0, 0]>, <46, 14, 30, 16, 1, 1, 0, [0, 0, 0, 0, 1, 1, 0, 0]>, <47, 15, 31, 16, 1, 1, 0, [0, 0, 0, 0, 1, 1, 0, 0]>, <48, 16, 32, 16, 1, 1, 0, [0, 0, 0, 0, 1, 1, 0, 0]>, <49, 17, 33, 16, 1, 1, 0, [0, 0, 0, 0, 1, 1, 0, 0]>, <50, 18, 34, 16, 1, 1, 0, [0, 0, 0, 0, 1, 1, 0, 0]>, <51, 19, 35, 16, 1, 1, 0, [0, 0, 0, 0, 1, 1, 0, 0]>, <52, 1, 17, 16, 2, 0, 0, [0, 0, 0, 1, 1, 0, 0, 0]>, <53, 2, 18, 16, 2, 0, 0, [0, 0, 0, 1, 1, 0, 0, 0]>, <54, 3, 19, 16, 2, 0, 0, [0, 0, 0, 1, 1, 0, 0, 0]>, <55, 4, 20, 16, 2, 0, 0, [0, 0, 0, 1, 1, 0, 0, 0]>, <56, 5, 21, 16, 2, 0, 0, [0, 0, 0, 1, 1, 0, 0, 0]>, <57, 6, 22, 16, 2, 0, 0, [0, 0, 0, 1, 1, 0, 0, 0]>, <58, 10, 26, 16, 2, 0, 0, [0, 0, 0, 1, 1, 0, 0, 0]>, <59, 11, 27, 16, 2, 0, 0, [0, 0, 0, 1, 1, 0, 0, 0]>, <60, 12, 28, 16, 2, 0, 0, [0, 0, 0, 1, 1, 0, 0, 0]>, <61, 13, 29, 16, 2, 0, 0, [0, 0, 0, 1, 1, 0, 0, 0]>, <62, 14, 30, 16, 2, 0, 0, [0, 0, 0, 1, 1, 0, 0, 0]>, <63, 15, 31, 16, 2, 0, 0, [0, 0, 0, 1, 1, 0, 0, 0]>, <64, 16, 32, 16, 2, 0, 0, [0, 0, 0, 1, 1, 0, 0, 0]>, <65, 17, 33, 16, 2, 0, 0, [0, 0, 0, 1, 1, 0, 0, 0]>, <66, 18, 34, 16, 2, 0, 0, [0, 0, 0, 1, 1, 0, 0, 0]>, <67, 19, 35, 16, 2, 0, 0, [0, 0, 0, 1, 1, 0, 0, 0]>, <68, 1, 17, 16, 3, 0, 0, [0, 0, 0, 0, 1, 1, 0, 0]>, <69, 2, 18, 16, 3, 0, 0, [0, 0, 0, 0, 1, 1, 0, 0]>, <70, 3, 19, 16, 3, 0, 0, [0, 0, 0, 0, 1, 1, 0, 0]>, <71, 4, 20, 16, 3, 0, 0, [0, 0, 0, 0, 1, 1, 0, 0]>, <72, 5, 21, 16, 3, 0, 0, [0, 0, 0, 0, 1, 1, 0, 0]>, <73, 6, 22, 16, 3, 0, 0, [0, 0, 0, 0, 1, 1, 0, 0]>, <74, 10, 26, 16, 3, 0, 0, [0, 0, 0, 0, 1, 1, 0, 0]>, <75, 11, 27, 16, 3, 0, 0, [0, 0, 0, 0, 1, 1, 0, 0]>, <76, 12, 28, 16, 3, 0, 0, [0, 0, 0, 0, 1, 1, 0, 0]>, <77, 13, 29, 16, 3, 0, 0, [0, 0, 0, 0, 1, 1, 0, 0]>, <78, 14, 30, 16, 3, 0, 0, [0, 0, 0, 0, 1, 1, 0, 0]>, <79, 15, 31, 16, 3, 0, 0, [0, 0, 0, 0, 1, 1, 0, 0]>, <80, 16, 32, 16, 3, 0, 0, [0, 0, 0, 0, 1, 1, 0, 0]>, <81, 17, 33, 16, 3, 0, 0, [0, 0, 0, 0, 1, 1, 0, 0]>, <82, 18, 34, 16, 3, 0, 0, [0, 0, 0, 0, 1, 1, 0, 0]>, <83, 19, 35, 16, 3, 0, 0, [0, 0, 0, 0, 1, 1, 0, 0]>, <84, 0, 17, 17, 4, 0, 1, [0, 0, 0, 0, 0, 1, 1, 0]>, <85, 1, 18, 17, 4, 0, 1, [0, 0, 0, 0, 0, 1, 1, 0]>, <86, 2, 19, 17, 4, 0, 1, [0, 0, 0, 0, 0, 1, 1, 0]>, <87, 3, 20, 17, 4, 0, 1, [0, 0, 0, 0, 0, 1, 1, 0]>, <88, 4, 21, 17, 4, 0, 1, [0, 0, 0, 0, 0, 1, 1, 0]>, <89, 5, 22, 17, 4, 0, 1, [0, 0, 0, 0, 0, 1, 1, 0]>, <90, 6, 23, 17, 4, 0, 1, [0, 0, 0, 0, 0, 1, 1, 0]>, <91, 9, 26, 17, 4, 0, 1, [0, 0, 0, 0, 0, 1, 1, 0]>, <92, 10, 27, 17, 4, 0, 1, [0, 0, 0, 0, 0, 1, 1, 0]>, <93, 11, 28, 17, 4, 0, 1, [0, 0, 0, 0, 0, 1, 1, 0]>, <94, 12, 29, 17, 4, 0, 1, [0, 0, 0, 0, 0, 1, 1, 0]>, <95, 13, 30, 17, 4, 0, 1, [0, 0, 0, 0, 0, 1, 1, 0]>, <96, 14, 31, 17, 4, 0, 1, [0, 0, 0, 0, 0, 1, 1, 0]>, <97, 15, 32, 17, 4, 0, 1, [0, 0, 0, 0, 0, 1, 1, 0]>, <98, 16, 33, 17, 4, 0, 1, [0, 0, 0, 0, 0, 1, 1, 0]>, <99, 17, 34, 17, 4, 0, 1, [0, 0, 0, 0, 0, 1, 1, 0]>, <100, 18, 35, 17, 4, 0, 1, [0, 0, 0, 0, 0, 1, 1, 0]>, <101, 2, 17, 15, 5, 0, 0, [0, 0, 0, 1, 1, 0, 0, 0]>, <102, 3, 18, 15, 5, 0, 0, [0, 0, 0, 1, 1, 0, 0, 0]>, <103, 4, 19, 15, 5, 0, 0, [0, 0, 0, 1, 1, 0, 0, 0]>, <104, 5, 20, 15, 5, 0, 0, [0, 0, 0, 1, 1, 0, 0, 0]>, <105, 6, 21, 15, 5, 0, 0, [0, 0, 0, 1, 1, 0, 0, 0]>, <106, 11, 26, 15, 5, 0, 0, [0, 0, 0, 1, 1, 0, 0, 0]>, <107, 12, 27, 15, 5, 0, 0, [0, 0, 0, 1, 1, 0, 0, 0]>, <108, 13, 28, 15, 5, 0, 0, [0, 0, 0, 1, 1, 0, 0, 0]>, <109, 14, 29, 15, 5, 0, 0, [0, 0, 0, 1, 1, 0, 0, 0]>, <110, 15, 30, 15, 5, 0, 0, [0, 0, 0, 1, 1, 0, 0, 0]>, <111, 16, 31, 15, 5, 0, 0, [0, 0, 0, 1, 1, 0, 0, 0]>, <112, 17, 32, 15, 5, 0, 0, [0, 0, 0, 1, 1, 0, 0, 0]>, <113, 18, 33, 15, 5, 0, 0, [0, 0, 0, 1, 1, 0, 0, 0]>, <114, 19, 34, 15, 5, 0, 0, [0, 0, 0, 1, 1, 0, 0, 0]>, <115, 20, 35, 15, 5, 0, 0, [0, 0, 0, 1, 1, 0, 0, 0]>, <116, 0, 17, 17, 6, 0, 0, [1, 1, 0, 0, 0, 0, 0, 0]>, <117, 1, 18, 17, 6, 0, 0, [1, 1, 0, 0, 0, 0, 0, 0]>, <118, 2, 19, 17, 6, 0, 0, [1, 1, 0, 0, 0, 0, 0, 0]>, <119, 3, 20, 17, 6, 0, 0, [1, 1, 0, 0, 0, 0, 0, 0]>, <120, 4, 21, 17, 6, 0, 0, [1, 1, 0, 0, 0, 0, 0, 0]>, <121, 5, 22, 17, 6, 0, 0, [1, 1, 0, 0, 0, 0, 0, 0]>, <122, 6, 23, 17, 6, 0, 0, [1, 1, 0, 0, 0, 0, 0, 0]>, <123, 9, 26, 17, 6, 0, 0, [1, 1, 0, 0, 0, 0, 0, 0]>, <124, 10, 27, 17, 6, 0, 0, [1, 1, 0, 0, 0, 0, 0, 0]>, <125, 11, 28, 17, 6, 0, 0, [1, 1, 0, 0, 0, 0, 0, 0]>, <126, 12, 29, 17, 6, 0, 0, [1, 1, 0, 0, 0, 0, 0, 0]>, <127, 13, 30, 17, 6, 0, 0, [1, 1, 0, 0, 0, 0, 0, 0]>, <128, 14, 31, 17, 6, 0, 0, [1, 1, 0, 0, 0, 0, 0, 0]>, <129, 15, 32, 17, 6, 0, 0, [1, 1, 0, 0, 0, 0, 0, 0]>, <130, 16, 33, 17, 6, 0, 0, [1, 1, 0, 0, 0, 0, 0, 0]>, <131, 17, 34, 17, 6, 0, 0, [1, 1, 0, 0, 0, 0, 0, 0]>, <132, 18, 35, 17, 6, 0, 0, [1, 1, 0, 0, 0, 0, 0, 0]>, <133, 2, 17, 15, 7, 0, 0, [0, 0, 0, 1, 1, 0, 0, 0]>, <134, 3, 18, 15, 7, 0, 0, [0, 0, 0, 1, 1, 0, 0, 0]>, <135, 4, 19, 15, 7, 0, 0, [0, 0, 0, 1, 1, 0, 0, 0]>, <136, 5, 20, 15, 7, 0, 0, [0, 0, 0, 1, 1, 0, 0, 0]>, <137, 6, 21, 15, 7, 0, 0, [0, 0, 0, 1, 1, 0, 0, 0]>, <138, 11, 26, 15, 7, 0, 0, [0, 0, 0, 1, 1, 0, 0, 0]>, <139, 12, 27, 15, 7, 0, 0, [0, 0, 0, 1, 1, 0, 0, 0]>, <140, 13, 28, 15, 7, 0, 0, [0, 0, 0, 1, 1, 0, 0, 0]>, <141, 14, 29, 15, 7, 0, 0, [0, 0, 0, 1, 1, 0, 0, 0]>, <142, 15, 30, 15, 7, 0, 0, [0, 0, 0, 1, 1, 0, 0, 0]>, <143, 16, 31, 15, 7, 0, 0, [0, 0, 0, 1, 1, 0, 0, 0]>, <144, 17, 32, 15, 7, 0, 0, [0, 0, 0, 1, 1, 0, 0, 0]>, <145, 18, 33, 15, 7, 0, 0, [0, 0, 0, 1, 1, 0, 0, 0]>, <146, 19, 34, 15, 7, 0, 0, [0, 0, 0, 1, 1, 0, 0, 0]>, <147, 20, 35, 15, 7, 0, 0, [0, 0, 0, 1, 1, 0, 0, 0]>, <148, 0, 17, 17, 8, 1, 0, [0, 1, 1, 0, 0, 0, 0, 0]>, <149, 1, 18, 17, 8, 1, 0, [0, 1, 1, 0, 0, 0, 0, 0]>, <150, 2, 19, 17, 8, 1, 0, [0, 1, 1, 0, 0, 0, 0, 0]>, <151, 3, 20, 17, 8, 1, 0, [0, 1, 1, 0, 0, 0, 0, 0]>, <152, 4, 21, 17, 8, 1, 0, [0, 1, 1, 0, 0, 0, 0, 0]>, <153, 5, 22, 17, 8, 1, 0, [0, 1, 1, 0, 0, 0, 0, 0]>, <154, 6, 23, 17, 8, 1, 0, [0, 1, 1, 0, 0, 0, 0, 0]>, <155, 9, 26, 17, 8, 1, 0, [0, 1, 1, 0, 0, 0, 0, 0]>, <156, 10, 27, 17, 8, 1, 0, [0, 1, 1, 0, 0, 0, 0, 0]>, <157, 11, 28, 17, 8, 1, 0, [0, 1, 1, 0, 0, 0, 0, 0]>, <158, 12, 29, 17, 8, 1, 0, [0, 1, 1, 0, 0, 0, 0, 0]>, <159, 13, 30, 17, 8, 1, 0, [0, 1, 1, 0, 0, 0, 0, 0]>, <160, 14, 31, 17, 8, 1, 0, [0, 1, 1, 0, 0, 0, 0, 0]>, <161, 15, 32, 17, 8, 1, 0, [0, 1, 1, 0, 0, 0, 0, 0]>, <162, 16, 33, 17, 8, 1, 0, [0, 1, 1, 0, 0, 0, 0, 0]>, <163, 17, 34, 17, 8, 1, 0, [0, 1, 1, 0, 0, 0, 0, 0]>, <164, 18, 35, 17, 8, 1, 0, [0, 1, 1, 0, 0, 0, 0, 0]>, <165, 3, 17, 14, 9, 0, 1, [0, 0, 0, 1, 1, 0, 0, 0]>, <166, 4, 18, 14, 9, 0, 1, [0, 0, 0, 1, 1, 0, 0, 0]>, <167, 5, 19, 14, 9, 0, 1, [0, 0, 0, 1, 1, 0, 0, 0]>, <168, 6, 20, 14, 9, 0, 1, [0, 0, 0, 1, 1, 0, 0, 0]>, <169, 12, 26, 14, 9, 0, 1, [0, 0, 0, 1, 1, 0, 0, 0]>, <170, 13, 27, 14, 9, 0, 1, [0, 0, 0, 1, 1, 0, 0, 0]>, <171, 14, 28, 14, 9, 0, 1, [0, 0, 0, 1, 1, 0, 0, 0]>, <172, 15, 29, 14, 9, 0, 1, [0, 0, 0, 1, 1, 0, 0, 0]>, <173, 17, 31, 14, 9, 0, 1, [0, 0, 0, 1, 1, 0, 0, 0]>, <174, 18, 32, 14, 9, 0, 1, [0, 0, 0, 1, 1, 0, 0, 0]>, <175, 19, 33, 14, 9, 0, 1, [0, 0, 0, 1, 1, 0, 0, 0]>, <176, 20, 34, 14, 9, 0, 1, [0, 0, 0, 1, 1, 0, 0, 0]>, <177, 21, 35, 14, 9, 0, 1, [0, 0, 0, 1, 1, 0, 0, 0]>, <178, 3, 17, 14, 10, 0, 0, [0, 0, 0, 0, 1, 1, 0, 0]>, <179, 4, 18, 14, 10, 0, 0, [0, 0, 0, 0, 1, 1, 0, 0]>, <180, 5, 19, 14, 10, 0, 0, [0, 0, 0, 0, 1, 1, 0, 0]>, <181, 6, 20, 14, 10, 0, 0, [0, 0, 0, 0, 1, 1, 0, 0]>, <182, 12, 26, 14, 10, 0, 0, [0, 0, 0, 0, 1, 1, 0, 0]>, <183, 13, 27, 14, 10, 0, 0, [0, 0, 0, 0, 1, 1, 0, 0]>, <184, 14, 28, 14, 10, 0, 0, [0, 0, 0, 0, 1, 1, 0, 0]>, <185, 15, 29, 14, 10, 0, 0, [0, 0, 0, 0, 1, 1, 0, 0]>, <186, 17, 31, 14, 10, 0, 0, [0, 0, 0, 0, 1, 1, 0, 0]>, <187, 18, 32, 14, 10, 0, 0, [0, 0, 0, 0, 1, 1, 0, 0]>, <188, 19, 33, 14, 10, 0, 0, [0, 0, 0, 0, 1, 1, 0, 0]>, <189, 20, 34, 14, 10, 0, 0, [0, 0, 0, 0, 1, 1, 0, 0]>, <190, 21, 35, 14, 10, 0, 0, [0, 0, 0, 0, 1, 1, 0, 0]>, <191, 4, 17, 13, 11, 0, 1, [0, 0, 0, 1, 1, 0, 0, 0]>, <192, 5, 18, 13, 11, 0, 1, [0, 0, 0, 1, 1, 0, 0, 0]>, <193, 6, 19, 13, 11, 0, 1, [0, 0, 0, 1, 1, 0, 0, 0]>, <194, 13, 26, 13, 11, 0, 1, [0, 0, 0, 1, 1, 0, 0, 0]>, <195, 14, 27, 13, 11, 0, 1, [0, 0, 0, 1, 1, 0, 0, 0]>, <196, 15, 28, 13, 11, 0, 1, [0, 0, 0, 1, 1, 0, 0, 0]>, <197, 18, 31, 13, 11, 0, 1, [0, 0, 0, 1, 1, 0, 0, 0]>, <198, 19, 32, 13, 11, 0, 1, [0, 0, 0, 1, 1, 0, 0, 0]>, <199, 20, 33, 13, 11, 0, 1, [0, 0, 0, 1, 1, 0, 0, 0]>, <200, 21, 34, 13, 11, 0, 1, [0, 0, 0, 1, 1, 0, 0, 0]>, <201, 22, 35, 13, 11, 0, 1, [0, 0, 0, 1, 1, 0, 0, 0]>, <202, 1, 17, 16, 12, 0, 0, [1, 0, 0, 0, 0, 0, 0, 1]>, <203, 2, 18, 16, 12, 0, 0, [1, 0, 0, 0, 0, 0, 0, 1]>, <204, 3, 19, 16, 12, 0, 0, [1, 0, 0, 0, 0, 0, 0, 1]>, <205, 4, 20, 16, 12, 0, 0, [1, 0, 0, 0, 0, 0, 0, 1]>, <206, 5, 21, 16, 12, 0, 0, [1, 0, 0, 0, 0, 0, 0, 1]>, <207, 6, 22, 16, 12, 0, 0, [1, 0, 0, 0, 0, 0, 0, 1]>, <208, 10, 26, 16, 12, 0, 0, [1, 0, 0, 0, 0, 0, 0, 1]>, <209, 11, 27, 16, 12, 0, 0, [1, 0, 0, 0, 0, 0, 0, 1]>, <210, 12, 28, 16, 12, 0, 0, [1, 0, 0, 0, 0, 0, 0, 1]>, <211, 13, 29, 16, 12, 0, 0, [1, 0, 0, 0, 0, 0, 0, 1]>, <212, 14, 30, 16, 12, 0, 0, [1, 0, 0, 0, 0, 0, 0, 1]>, <213, 15, 31, 16, 12, 0, 0, [1, 0, 0, 0, 0, 0, 0, 1]>, <214, 16, 32, 16, 12, 0, 0, [1, 0, 0, 0, 0, 0, 0, 1]>, <215, 17, 33, 16, 12, 0, 0, [1, 0, 0, 0, 0, 0, 0, 1]>, <216, 18, 34, 16, 12, 0, 0, [1, 0, 0, 0, 0, 0, 0, 1]>, <217, 19, 35, 16, 12, 0, 0, [1, 0, 0, 0, 0, 0, 0, 1]>, <218, 0, 18, 18, 13, 0, 1, [0, 0, 0, 0, 1, 1, 0, 0]>, <219, 1, 19, 18, 13, 0, 1, [0, 0, 0, 0, 1, 1, 0, 0]>, <220, 2, 20, 18, 13, 0, 1, [0, 0, 0, 0, 1, 1, 0, 0]>, <221, 3, 21, 18, 13, 0, 1, [0, 0, 0, 0, 1, 1, 0, 0]>, <222, 4, 22, 18, 13, 0, 1, [0, 0, 0, 0, 1, 1, 0, 0]>, <223, 5, 23, 18, 13, 0, 1, [0, 0, 0, 0, 1, 1, 0, 0]>, <224, 6, 24, 18, 13, 0, 1, [0, 0, 0, 0, 1, 1, 0, 0]>, <225, 8, 26, 18, 13, 0, 1, [0, 0, 0, 0, 1, 1, 0, 0]>, <226, 9, 27, 18, 13, 0, 1, [0, 0, 0, 0, 1, 1, 0, 0]>, <227, 10, 28, 18, 13, 0, 1, [0, 0, 0, 0, 1, 1, 0, 0]>, <228, 11, 29, 18, 13, 0, 1, [0, 0, 0, 0, 1, 1, 0, 0]>, <229, 12, 30, 18, 13, 0, 1, [0, 0, 0, 0, 1, 1, 0, 0]>, <230, 13, 31, 18, 13, 0, 1, [0, 0, 0, 0, 1, 1, 0, 0]>, <231, 14, 32, 18, 13, 0, 1, [0, 0, 0, 0, 1, 1, 0, 0]>, <232, 15, 33, 18, 13, 0, 1, [0, 0, 0, 0, 1, 1, 0, 0]>, <233, 16, 34, 18, 13, 0, 1, [0, 0, 0, 0, 1, 1, 0, 0]>, <234, 17, 35, 18, 13, 0, 1, [0, 0, 0, 0, 1, 1, 0, 0]>, <235, 4, 17, 13, 14, 1, 0, [0, 0, 1, 1, 0, 0, 0, 0]>, <236, 5, 18, 13, 14, 1, 0, [0, 0, 1, 1, 0, 0, 0, 0]>, <237, 6, 19, 13, 14, 1, 0, [0, 0, 1, 1, 0, 0, 0, 0]>, <238, 13, 26, 13, 14, 1, 0, [0, 0, 1, 1, 0, 0, 0, 0]>, <239, 14, 27, 13, 14, 1, 0, [0, 0, 1, 1, 0, 0, 0, 0]>, <240, 15, 28, 13, 14, 1, 0, [0, 0, 1, 1, 0, 0, 0, 0]>, <241, 18, 31, 13, 14, 1, 0, [0, 0, 1, 1, 0, 0, 0, 0]>, <242, 19, 32, 13, 14, 1, 0, [0, 0, 1, 1, 0, 0, 0, 0]>, <243, 20, 33, 13, 14, 1, 0, [0, 0, 1, 1, 0, 0, 0, 0]>, <244, 21, 34, 13, 14, 1, 0, [0, 0, 1, 1, 0, 0, 0, 0]>, <245, 22, 35, 13, 14, 1, 0, [0, 0, 1, 1, 0, 0, 0, 0]>, <246, 0, 17, 17, 15, 0, 0, [1, 1, 0, 0, 0, 0, 0, 0]>, <247, 1, 18, 17, 15, 0, 0, [1, 1, 0, 0, 0, 0, 0, 0]>, <248, 2, 19, 17, 15, 0, 0, [1, 1, 0, 0, 0, 0, 0, 0]>, <249, 3, 20, 17, 15, 0, 0, [1, 1, 0, 0, 0, 0, 0, 0]>, <250, 4, 21, 17, 15, 0, 0, [1, 1, 0, 0, 0, 0, 0, 0]>, <251, 5, 22, 17, 15, 0, 0, [1, 1, 0, 0, 0, 0, 0, 0]>, <252, 6, 23, 17, 15, 0, 0, [1, 1, 0, 0, 0, 0, 0, 0]>, <253, 9, 26, 17, 15, 0, 0, [1, 1, 0, 0, 0, 0, 0, 0]>, <254, 10, 27, 17, 15, 0, 0, [1, 1, 0, 0, 0, 0, 0, 0]>, <255, 11, 28, 17, 15, 0, 0, [1, 1, 0, 0, 0, 0, 0, 0]>, <256, 12, 29, 17, 15, 0, 0, [1, 1, 0, 0, 0, 0, 0, 0]>, <257, 13, 30, 17, 15, 0, 0, [1, 1, 0, 0, 0, 0, 0, 0]>, <258, 14, 31, 17, 15, 0, 0, [1, 1, 0, 0, 0, 0, 0, 0]>, <259, 15, 32, 17, 15, 0, 0, [1, 1, 0, 0, 0, 0, 0, 0]>, <260, 16, 33, 17, 15, 0, 0, [1, 1, 0, 0, 0, 0, 0, 0]>, <261, 17, 34, 17, 15, 0, 0, [1, 1, 0, 0, 0, 0, 0, 0]>, <262, 18, 35, 17, 15, 0, 0, [1, 1, 0, 0, 0, 0, 0, 0]>, <263, 0, 17, 17, 16, 0, 1, [0, 1, 1, 0, 0, 0, 0, 0]>, <264, 1, 18, 17, 16, 0, 1, [0, 1, 1, 0, 0, 0, 0, 0]>, <265, 2, 19, 17, 16, 0, 1, [0, 1, 1, 0, 0, 0, 0, 0]>, <266, 3, 20, 17, 16, 0, 1, [0, 1, 1, 0, 0, 0, 0, 0]>, <267, 4, 21, 17, 16, 0, 1, [0, 1, 1, 0, 0, 0, 0, 0]>, <268, 5, 22, 17, 16, 0, 1, [0, 1, 1, 0, 0, 0, 0, 0]>, <269, 6, 23, 17, 16, 0, 1, [0, 1, 1, 0, 0, 0, 0, 0]>, <270, 9, 26, 17, 16, 0, 1, [0, 1, 1, 0, 0, 0, 0, 0]>, <271, 10, 27, 17, 16, 0, 1, [0, 1, 1, 0, 0, 0, 0, 0]>, <272, 11, 28, 17, 16, 0, 1, [0, 1, 1, 0, 0, 0, 0, 0]>, <273, 12, 29, 17, 16, 0, 1, [0, 1, 1, 0, 0, 0, 0, 0]>, <274, 13, 30, 17, 16, 0, 1, [0, 1, 1, 0, 0, 0, 0, 0]>, <275, 14, 31, 17, 16, 0, 1, [0, 1, 1, 0, 0, 0, 0, 0]>, <276, 15, 32, 17, 16, 0, 1, [0, 1, 1, 0, 0, 0, 0, 0]>, <277, 16, 33, 17, 16, 0, 1, [0, 1, 1, 0, 0, 0, 0, 0]>, <278, 17, 34, 17, 16, 0, 1, [0, 1, 1, 0, 0, 0, 0, 0]>, <279, 18, 35, 17, 16, 0, 1, [0, 1, 1, 0, 0, 0, 0, 0]>, <280, 0, 19, 19, 17, 0, 0, [1, 0, 0, 0, 0, 0, 0, 1]>, <281, 1, 20, 19, 17, 0, 0, [1, 0, 0, 0, 0, 0, 0, 1]>, <282, 2, 21, 19, 17, 0, 0, [1, 0, 0, 0, 0, 0, 0, 1]>, <283, 3, 22, 19, 17, 0, 0, [1, 0, 0, 0, 0, 0, 0, 1]>, <284, 4, 23, 19, 17, 0, 0, [1, 0, 0, 0, 0, 0, 0, 1]>, <285, 5, 24, 19, 17, 0, 0, [1, 0, 0, 0, 0, 0, 0, 1]>, <286, 6, 25, 19, 17, 0, 0, [1, 0, 0, 0, 0, 0, 0, 1]>, <287, 7, 26, 19, 17, 0, 0, [1, 0, 0, 0, 0, 0, 0, 1]>, <288, 8, 27, 19, 17, 0, 0, [1, 0, 0, 0, 0, 0, 0, 1]>, <289, 9, 28, 19, 17, 0, 0, [1, 0, 0, 0, 0, 0, 0, 1]>, <290, 10, 29, 19, 17, 0, 0, [1, 0, 0, 0, 0, 0, 0, 1]>, <291, 11, 30, 19, 17, 0, 0, [1, 0, 0, 0, 0, 0, 0, 1]>, <292, 12, 31, 19, 17, 0, 0, [1, 0, 0, 0, 0, 0, 0, 1]>, <293, 13, 32, 19, 17, 0, 0, [1, 0, 0, 0, 0, 0, 0, 1]>, <294, 14, 33, 19, 17, 0, 0, [1, 0, 0, 0, 0, 0, 0, 1]>, <295, 15, 34, 19, 17, 0, 0, [1, 0, 0, 0, 0, 0, 0, 1]>, <296, 16, 35, 19, 17, 0, 0, [1, 0, 0, 0, 0, 0, 0, 1]>, <297, 2, 17, 15, 18, 0, 0, [0, 0, 0, 0, 1, 1, 0, 0]>, <298, 3, 18, 15, 18, 0, 0, [0, 0, 0, 0, 1, 1, 0, 0]>, <299, 4, 19, 15, 18, 0, 0, [0, 0, 0, 0, 1, 1, 0, 0]>, <300, 5, 20, 15, 18, 0, 0, [0, 0, 0, 0, 1, 1, 0, 0]>, <301, 6, 21, 15, 18, 0, 0, [0, 0, 0, 0, 1, 1, 0, 0]>, <302, 11, 26, 15, 18, 0, 0, [0, 0, 0, 0, 1, 1, 0, 0]>, <303, 12, 27, 15, 18, 0, 0, [0, 0, 0, 0, 1, 1, 0, 0]>, <304, 13, 28, 15, 18, 0, 0, [0, 0, 0, 0, 1, 1, 0, 0]>, <305, 14, 29, 15, 18, 0, 0, [0, 0, 0, 0, 1, 1, 0, 0]>, <306, 15, 30, 15, 18, 0, 0, [0, 0, 0, 0, 1, 1, 0, 0]>, <307, 16, 31, 15, 18, 0, 0, [0, 0, 0, 0, 1, 1, 0, 0]>, <308, 17, 32, 15, 18, 0, 0, [0, 0, 0, 0, 1, 1, 0, 0]>, <309, 18, 33, 15, 18, 0, 0, [0, 0, 0, 0, 1, 1, 0, 0]>, <310, 19, 34, 15, 18, 0, 0, [0, 0, 0, 0, 1, 1, 0, 0]>, <311, 20, 35, 15, 18, 0, 0, [0, 0, 0, 0, 1, 1, 0, 0]>, <312, 0, 18, 18, 19, 0, 0, [0, 0, 0, 0, 0, 1, 1, 0]>, <313, 1, 19, 18, 19, 0, 0, [0, 0, 0, 0, 0, 1, 1, 0]>, <314, 2, 20, 18, 19, 0, 0, [0, 0, 0, 0, 0, 1, 1, 0]>, <315, 3, 21, 18, 19, 0, 0, [0, 0, 0, 0, 0, 1, 1, 0]>, <316, 4, 22, 18, 19, 0, 0, [0, 0, 0, 0, 0, 1, 1, 0]>, <317, 5, 23, 18, 19, 0, 0, [0, 0, 0, 0, 0, 1, 1, 0]>, <318, 6, 24, 18, 19, 0, 0, [0, 0, 0, 0, 0, 1, 1, 0]>, <319, 8, 26, 18, 19, 0, 0, [0, 0, 0, 0, 0, 1, 1, 0]>, <320, 9, 27, 18, 19, 0, 0, [0, 0, 0, 0, 0, 1, 1, 0]>, <321, 10, 28, 18, 19, 0, 0, [0, 0, 0, 0, 0, 1, 1, 0]>, <322, 11, 29, 18, 19, 0, 0, [0, 0, 0, 0, 0, 1, 1, 0]>, <323, 12, 30, 18, 19, 0, 0, [0, 0, 0, 0, 0, 1, 1, 0]>, <324, 13, 31, 18, 19, 0, 0, [0, 0, 0, 0, 0, 1, 1, 0]>, <325, 14, 32, 18, 19, 0, 0, [0, 0, 0, 0, 0, 1, 1, 0]>, <326, 15, 33, 18, 19, 0, 0, [0, 0, 0, 0, 0, 1, 1, 0]>, <327, 16, 34, 18, 19, 0, 0, [0, 0, 0, 0, 0, 1, 1, 0]>, <328, 17, 35, 18, 19, 0, 0, [0, 0, 0, 0, 0, 1, 1, 0]>, <329, 4, 17, 13, 20, 1, 0, [0, 0, 1, 1, 0, 0, 0, 0]>, <330, 5, 18, 13, 20, 1, 0, [0, 0, 1, 1, 0, 0, 0, 0]>, <331, 6, 19, 13, 20, 1, 0, [0, 0, 1, 1, 0, 0, 0, 0]>, <332, 13, 26, 13, 20, 1, 0, [0, 0, 1, 1, 0, 0, 0, 0]>, <333, 14, 27, 13, 20, 1, 0, [0, 0, 1, 1, 0, 0, 0, 0]>, <334, 15, 28, 13, 20, 1, 0, [0, 0, 1, 1, 0, 0, 0, 0]>, <335, 18, 31, 13, 20, 1, 0, [0, 0, 1, 1, 0, 0, 0, 0]>, <336, 19, 32, 13, 20, 1, 0, [0, 0, 1, 1, 0, 0, 0, 0]>, <337, 20, 33, 13, 20, 1, 0, [0, 0, 1, 1, 0, 0, 0, 0]>, <338, 21, 34, 13, 20, 1, 0, [0, 0, 1, 1, 0, 0, 0, 0]>, <339, 22, 35, 13, 20, 1, 0, [0, 0, 1, 1, 0, 0, 0, 0]>, <340, 0, 17, 17, 21, 0, 0, [1, 1, 0, 0, 0, 0, 0, 0]>, <341, 1, 18, 17, 21, 0, 0, [1, 1, 0, 0, 0, 0, 0, 0]>, <342, 2, 19, 17, 21, 0, 0, [1, 1, 0, 0, 0, 0, 0, 0]>, <343, 3, 20, 17, 21, 0, 0, [1, 1, 0, 0, 0, 0, 0, 0]>, <344, 4, 21, 17, 21, 0, 0, [1, 1, 0, 0, 0, 0, 0, 0]>, <345, 5, 22, 17, 21, 0, 0, [1, 1, 0, 0, 0, 0, 0, 0]>, <346, 6, 23, 17, 21, 0, 0, [1, 1, 0, 0, 0, 0, 0, 0]>, <347, 9, 26, 17, 21, 0, 0, [1, 1, 0, 0, 0, 0, 0, 0]>, <348, 10, 27, 17, 21, 0, 0, [1, 1, 0, 0, 0, 0, 0, 0]>, <349, 11, 28, 17, 21, 0, 0, [1, 1, 0, 0, 0, 0, 0, 0]>, <350, 12, 29, 17, 21, 0, 0, [1, 1, 0, 0, 0, 0, 0, 0]>, <351, 13, 30, 17, 21, 0, 0, [1, 1, 0, 0, 0, 0, 0, 0]>, <352, 14, 31, 17, 21, 0, 0, [1, 1, 0, 0, 0, 0, 0, 0]>, <353, 15, 32, 17, 21, 0, 0, [1, 1, 0, 0, 0, 0, 0, 0]>, <354, 16, 33, 17, 21, 0, 0, [1, 1, 0, 0, 0, 0, 0, 0]>, <355, 17, 34, 17, 21, 0, 0, [1, 1, 0, 0, 0, 0, 0, 0]>, <356, 18, 35, 17, 21, 0, 0, [1, 1, 0, 0, 0, 0, 0, 0]>};
